0 37 
1 36 
2 34 
3 32 
4 32 
5 32 
6 31 
7 29 
8 28 
9 28 
10 27 
11 25 
12 25 
13 24 
14 25 
15 27 
16 26 
17 25 
18 25 
19 25 
20 24 
21 22 
22 22 
23 21 
24 20 
25 18 
26 17 
27 17 
28 18 
29 16 
30 16 
31 15 
32 15 
33 14 
34 13 
35 11 
36 9 
37 8 
38 10 
39 8 
40 8 
41 7 
42 8 
43 7 
44 5 
45 4 
46 4 
47 4 
48 3 
49 2 
50 2 
51 1 
52 0 
53 0 

